p cnf 375 2465
4 5 6 7 0
8 9 10 11 0
12 13 14 15 0
16 17 18 19 0
20 21 22 23 0
24 25 26 27 0
28 29 30 31 0
32 33 34 35 0
36 37 38 39 0
40 41 42 43 0
44 45 46 47 0
48 49 50 51 0
52 53 54 55 0
56 57 58 59 0
60 61 62 63 0
64 65 66 67 0
68 69 70 71 0
72 73 74 75 0
76 77 78 79 0
80 81 82 83 0
84 85 86 87 0
88 89 90 91 0
92 93 94 95 0
96 97 98 99 0
100 101 102 103 0
104 105 106 107 0
108 109 110 111 0
112 113 114 115 0
116 117 118 119 0
120 121 122 123 0
124 125 126 127 0
128 129 130 131 0
132 133 134 135 0
136 137 138 139 0
140 141 142 143 0
144 145 146 147 0
148 149 150 151 0
152 153 154 155 0
156 157 158 159 0
160 161 162 163 0
164 165 166 167 0
168 169 170 171 0
172 173 174 175 0
176 177 178 179 0
180 181 182 183 0
184 185 186 187 0
188 189 190 191 0
192 193 194 195 0
196 197 198 199 0
200 201 202 203 0
204 205 206 207 0
208 209 210 211 0
212 213 214 215 0
216 217 218 219 0
220 221 222 223 0
224 225 226 227 0
228 229 230 231 0
232 233 234 235 0
236 237 238 239 0
240 241 242 243 0
244 245 246 247 0
248 249 250 251 0
252 253 254 255 0
256 257 258 259 0
260 261 262 263 0
264 265 266 267 0
268 269 270 271 0
272 273 274 275 0
276 277 278 279 0
280 281 282 283 0
284 285 286 287 0
288 289 290 291 0
292 293 294 295 0
296 297 298 299 0
300 301 302 303 0
304 305 306 307 0
308 309 310 311 0
312 313 314 315 0
316 317 318 319 0
320 321 322 323 0
324 325 326 327 0
328 329 330 331 0
332 333 334 335 0
336 337 338 339 0
340 341 342 343 0
344 345 346 347 0
348 349 350 351 0
352 353 354 355 0
356 357 358 359 0
360 361 362 363 0
364 365 366 367 0
368 369 370 371 0
372 373 374 375 0
-4 -128 0
-5 -129 0
-6 -130 0
-7 -131 0
-4 -8 0
-5 -9 0
-6 -10 0
-7 -11 0
-4 -136 0
-5 -137 0
-6 -138 0
-7 -139 0
-4 -16 0
-5 -17 0
-6 -18 0
-7 -19 0
-4 -164 0
-5 -165 0
-6 -166 0
-7 -167 0
-4 -44 0
-5 -45 0
-6 -46 0
-7 -47 0
-4 -172 0
-5 -173 0
-6 -174 0
-7 -175 0
-4 -52 0
-5 -53 0
-6 -54 0
-7 -55 0
-8 -132 0
-9 -133 0
-10 -134 0
-11 -135 0
-8 -12 0
-9 -13 0
-10 -14 0
-11 -15 0
-8 -160 0
-9 -161 0
-10 -162 0
-11 -163 0
-8 -40 0
-9 -41 0
-10 -42 0
-11 -43 0
-8 -168 0
-9 -169 0
-10 -170 0
-11 -171 0
-8 -48 0
-9 -49 0
-10 -50 0
-11 -51 0
-8 -124 0
-9 -125 0
-10 -126 0
-11 -127 0
-12 -128 0
-13 -129 0
-14 -130 0
-15 -131 0
-12 -144 0
-13 -145 0
-14 -146 0
-15 -147 0
-12 -24 0
-13 -25 0
-14 -26 0
-15 -27 0
-12 -152 0
-13 -153 0
-14 -154 0
-15 -155 0
-12 -32 0
-13 -33 0
-14 -34 0
-15 -35 0
-12 -164 0
-13 -165 0
-14 -166 0
-15 -167 0
-12 -44 0
-13 -45 0
-14 -46 0
-15 -47 0
-12 -180 0
-13 -181 0
-14 -182 0
-15 -183 0
-12 -60 0
-13 -61 0
-14 -62 0
-15 -63 0
-12 -188 0
-13 -189 0
-14 -190 0
-15 -191 0
-12 -68 0
-13 -69 0
-14 -70 0
-15 -71 0
-16 -140 0
-17 -141 0
-18 -142 0
-19 -143 0
-16 -20 0
-17 -21 0
-18 -22 0
-19 -23 0
-16 -152 0
-17 -153 0
-18 -154 0
-19 -155 0
-16 -32 0
-17 -33 0
-18 -34 0
-19 -35 0
-16 -160 0
-17 -161 0
-18 -162 0
-19 -163 0
-16 -40 0
-17 -41 0
-18 -42 0
-19 -43 0
-16 -176 0
-17 -177 0
-18 -178 0
-19 -179 0
-16 -56 0
-17 -57 0
-18 -58 0
-19 -59 0
-16 -188 0
-17 -189 0
-18 -190 0
-19 -191 0
-16 -68 0
-17 -69 0
-18 -70 0
-19 -71 0
-16 -124 0
-17 -125 0
-18 -126 0
-19 -127 0
-20 -136 0
-21 -137 0
-22 -138 0
-23 -139 0
-20 -148 0
-21 -149 0
-22 -150 0
-23 -151 0
-20 -28 0
-21 -29 0
-22 -30 0
-23 -31 0
-20 -156 0
-21 -157 0
-22 -158 0
-23 -159 0
-20 -36 0
-21 -37 0
-22 -38 0
-23 -39 0
-20 -172 0
-21 -173 0
-22 -174 0
-23 -175 0
-20 -52 0
-21 -53 0
-22 -54 0
-23 -55 0
-20 -184 0
-21 -185 0
-22 -186 0
-23 -187 0
-20 -64 0
-21 -65 0
-22 -66 0
-23 -67 0
-20 -192 0
-21 -193 0
-22 -194 0
-23 -195 0
-20 -72 0
-21 -73 0
-22 -74 0
-23 -75 0
-24 -132 0
-25 -133 0
-26 -134 0
-27 -135 0
-24 -148 0
-25 -149 0
-26 -150 0
-27 -151 0
-24 -28 0
-25 -29 0
-26 -30 0
-27 -31 0
-24 -156 0
-25 -157 0
-26 -158 0
-27 -159 0
-24 -36 0
-25 -37 0
-26 -38 0
-27 -39 0
-24 -168 0
-25 -169 0
-26 -170 0
-27 -171 0
-24 -48 0
-25 -49 0
-26 -50 0
-27 -51 0
-24 -184 0
-25 -185 0
-26 -186 0
-27 -187 0
-24 -64 0
-25 -65 0
-26 -66 0
-27 -67 0
-24 -192 0
-25 -193 0
-26 -194 0
-27 -195 0
-24 -72 0
-25 -73 0
-26 -74 0
-27 -75 0
-28 -140 0
-29 -141 0
-30 -142 0
-31 -143 0
-28 -144 0
-29 -145 0
-30 -146 0
-31 -147 0
-28 -152 0
-29 -153 0
-30 -154 0
-31 -155 0
-28 -32 0
-29 -33 0
-30 -34 0
-31 -35 0
-28 -36 0
-29 -37 0
-30 -38 0
-31 -39 0
-28 -156 0
-29 -157 0
-30 -158 0
-31 -159 0
-28 -176 0
-29 -177 0
-30 -178 0
-31 -179 0
-28 -180 0
-29 -181 0
-30 -182 0
-31 -183 0
-28 -56 0
-29 -57 0
-30 -58 0
-31 -59 0
-28 -60 0
-29 -61 0
-30 -62 0
-31 -63 0
-28 -188 0
-29 -189 0
-30 -190 0
-31 -191 0
-28 -68 0
-29 -69 0
-30 -70 0
-31 -71 0
-28 -72 0
-29 -73 0
-30 -74 0
-31 -75 0
-28 -192 0
-29 -193 0
-30 -194 0
-31 -195 0
-32 -132 0
-33 -133 0
-34 -134 0
-35 -135 0
-32 -136 0
-33 -137 0
-34 -138 0
-35 -139 0
-32 -148 0
-33 -149 0
-34 -150 0
-35 -151 0
-32 -156 0
-33 -157 0
-34 -158 0
-35 -159 0
-32 -36 0
-33 -37 0
-34 -38 0
-35 -39 0
-32 -168 0
-33 -169 0
-34 -170 0
-35 -171 0
-32 -172 0
-33 -173 0
-34 -174 0
-35 -175 0
-32 -48 0
-33 -49 0
-34 -50 0
-35 -51 0
-32 -52 0
-33 -53 0
-34 -54 0
-35 -55 0
-32 -184 0
-33 -185 0
-34 -186 0
-35 -187 0
-32 -64 0
-33 -65 0
-34 -66 0
-35 -67 0
-32 -192 0
-33 -193 0
-34 -194 0
-35 -195 0
-32 -72 0
-33 -73 0
-34 -74 0
-35 -75 0
-36 -140 0
-37 -141 0
-38 -142 0
-39 -143 0
-36 -144 0
-37 -145 0
-38 -146 0
-39 -147 0
-36 -148 0
-37 -149 0
-38 -150 0
-39 -151 0
-36 -152 0
-37 -153 0
-38 -154 0
-39 -155 0
-36 -176 0
-37 -177 0
-38 -178 0
-39 -179 0
-36 -180 0
-37 -181 0
-38 -182 0
-39 -183 0
-36 -56 0
-37 -57 0
-38 -58 0
-39 -59 0
-36 -60 0
-37 -61 0
-38 -62 0
-39 -63 0
-36 -64 0
-37 -65 0
-38 -66 0
-39 -67 0
-36 -68 0
-37 -69 0
-38 -70 0
-39 -71 0
-36 -184 0
-37 -185 0
-38 -186 0
-39 -187 0
-36 -188 0
-37 -189 0
-38 -190 0
-39 -191 0
-40 -128 0
-41 -129 0
-42 -130 0
-43 -131 0
-40 -136 0
-41 -137 0
-42 -138 0
-43 -139 0
-40 -200 0
-41 -201 0
-42 -202 0
-43 -203 0
-40 -80 0
-41 -81 0
-42 -82 0
-43 -83 0
-40 -208 0
-41 -209 0
-42 -210 0
-43 -211 0
-40 -88 0
-41 -89 0
-42 -90 0
-43 -91 0
-40 -236 0
-41 -237 0
-42 -238 0
-43 -239 0
-40 -116 0
-41 -117 0
-42 -118 0
-43 -119 0
-44 -132 0
-45 -133 0
-46 -134 0
-47 -135 0
-44 -196 0
-45 -197 0
-46 -198 0
-47 -199 0
-44 -76 0
-45 -77 0
-46 -78 0
-47 -79 0
-44 -204 0
-45 -205 0
-46 -206 0
-47 -207 0
-44 -84 0
-45 -85 0
-46 -86 0
-47 -87 0
-44 -236 0
-45 -237 0
-46 -238 0
-47 -239 0
-44 -116 0
-45 -117 0
-46 -118 0
-47 -119 0
-44 -124 0
-45 -125 0
-46 -126 0
-47 -127 0
-48 -128 0
-49 -129 0
-50 -130 0
-51 -131 0
-48 -224 0
-49 -225 0
-50 -226 0
-51 -227 0
-48 -144 0
-49 -145 0
-50 -146 0
-51 -147 0
-48 -152 0
-49 -153 0
-50 -154 0
-51 -155 0
-48 -200 0
-49 -201 0
-50 -202 0
-51 -203 0
-48 -80 0
-49 -81 0
-50 -82 0
-51 -83 0
-48 -216 0
-49 -217 0
-50 -218 0
-51 -219 0
-48 -96 0
-49 -97 0
-50 -98 0
-51 -99 0
-48 -104 0
-49 -105 0
-50 -106 0
-51 -107 0
-48 -236 0
-49 -237 0
-50 -238 0
-51 -239 0
-48 -116 0
-49 -117 0
-50 -118 0
-51 -119 0
-52 -140 0
-53 -141 0
-54 -142 0
-55 -143 0
-52 -152 0
-53 -153 0
-54 -154 0
-55 -155 0
-52 -196 0
-53 -197 0
-54 -198 0
-55 -199 0
-52 -76 0
-53 -77 0
-54 -78 0
-55 -79 0
-52 -212 0
-53 -213 0
-54 -214 0
-55 -215 0
-52 -92 0
-53 -93 0
-54 -94 0
-55 -95 0
-52 -224 0
-53 -225 0
-54 -226 0
-55 -227 0
-52 -104 0
-53 -105 0
-54 -106 0
-55 -107 0
-52 -236 0
-53 -237 0
-54 -238 0
-55 -239 0
-52 -116 0
-53 -117 0
-54 -118 0
-55 -119 0
-52 -124 0
-53 -125 0
-54 -126 0
-55 -127 0
-56 -136 0
-57 -137 0
-58 -138 0
-59 -139 0
-56 -148 0
-57 -149 0
-58 -150 0
-59 -151 0
-56 -156 0
-57 -157 0
-58 -158 0
-59 -159 0
-56 -236 0
-57 -237 0
-58 -238 0
-59 -239 0
-56 -208 0
-57 -209 0
-58 -210 0
-59 -211 0
-56 -88 0
-57 -89 0
-58 -90 0
-59 -91 0
-56 -220 0
-57 -221 0
-58 -222 0
-59 -223 0
-56 -100 0
-57 -101 0
-58 -102 0
-59 -103 0
-56 -108 0
-57 -109 0
-58 -110 0
-59 -111 0
-56 -116 0
-57 -117 0
-58 -118 0
-59 -119 0
-56 -228 0
-57 -229 0
-58 -230 0
-59 -231 0
-60 -132 0
-61 -133 0
-62 -134 0
-63 -135 0
-60 -148 0
-61 -149 0
-62 -150 0
-63 -151 0
-60 -156 0
-61 -157 0
-62 -158 0
-63 -159 0
-60 -236 0
-61 -237 0
-62 -238 0
-63 -239 0
-60 -204 0
-61 -205 0
-62 -206 0
-63 -207 0
-60 -84 0
-61 -85 0
-62 -86 0
-63 -87 0
-60 -220 0
-61 -221 0
-62 -222 0
-63 -223 0
-60 -100 0
-61 -101 0
-62 -102 0
-63 -103 0
-60 -108 0
-61 -109 0
-62 -110 0
-63 -111 0
-60 -116 0
-61 -117 0
-62 -118 0
-63 -119 0
-60 -228 0
-61 -229 0
-62 -230 0
-63 -231 0
-64 -140 0
-65 -141 0
-66 -142 0
-67 -143 0
-64 -144 0
-65 -145 0
-66 -146 0
-67 -147 0
-64 -152 0
-65 -153 0
-66 -154 0
-67 -155 0
-64 -156 0
-65 -157 0
-66 -158 0
-67 -159 0
-64 -224 0
-65 -225 0
-66 -226 0
-67 -227 0
-64 -236 0
-65 -237 0
-66 -238 0
-67 -239 0
-64 -212 0
-65 -213 0
-66 -214 0
-67 -215 0
-64 -216 0
-65 -217 0
-66 -218 0
-67 -219 0
-64 -92 0
-65 -93 0
-66 -94 0
-67 -95 0
-64 -96 0
-65 -97 0
-66 -98 0
-67 -99 0
-64 -228 0
-65 -229 0
-66 -230 0
-67 -231 0
-64 -104 0
-65 -105 0
-66 -106 0
-67 -107 0
-64 -108 0
-65 -109 0
-66 -110 0
-67 -111 0
-64 -116 0
-65 -117 0
-66 -118 0
-67 -119 0
-68 -132 0
-69 -133 0
-70 -134 0
-71 -135 0
-68 -136 0
-69 -137 0
-70 -138 0
-71 -139 0
-68 -148 0
-69 -149 0
-70 -150 0
-71 -151 0
-68 -156 0
-69 -157 0
-70 -158 0
-71 -159 0
-68 -236 0
-69 -237 0
-70 -238 0
-71 -239 0
-68 -204 0
-69 -205 0
-70 -206 0
-71 -207 0
-68 -208 0
-69 -209 0
-70 -210 0
-71 -211 0
-68 -84 0
-69 -85 0
-70 -86 0
-71 -87 0
-68 -88 0
-69 -89 0
-70 -90 0
-71 -91 0
-68 -220 0
-69 -221 0
-70 -222 0
-71 -223 0
-68 -100 0
-69 -101 0
-70 -102 0
-71 -103 0
-68 -108 0
-69 -109 0
-70 -110 0
-71 -111 0
-68 -116 0
-69 -117 0
-70 -118 0
-71 -119 0
-68 -228 0
-69 -229 0
-70 -230 0
-71 -231 0
-72 -140 0
-73 -141 0
-74 -142 0
-75 -143 0
-72 -144 0
-73 -145 0
-74 -146 0
-75 -147 0
-72 -148 0
-73 -149 0
-74 -150 0
-75 -151 0
-72 -152 0
-73 -153 0
-74 -154 0
-75 -155 0
-72 -224 0
-73 -225 0
-74 -226 0
-75 -227 0
-72 -236 0
-73 -237 0
-74 -238 0
-75 -239 0
-72 -212 0
-73 -213 0
-74 -214 0
-75 -215 0
-72 -216 0
-73 -217 0
-74 -218 0
-75 -219 0
-72 -92 0
-73 -93 0
-74 -94 0
-75 -95 0
-72 -96 0
-73 -97 0
-74 -98 0
-75 -99 0
-72 -100 0
-73 -101 0
-74 -102 0
-75 -103 0
-72 -104 0
-73 -105 0
-74 -106 0
-75 -107 0
-72 -220 0
-73 -221 0
-74 -222 0
-75 -223 0
-72 -116 0
-73 -117 0
-74 -118 0
-75 -119 0
-76 -164 0
-77 -165 0
-78 -166 0
-79 -167 0
-76 -172 0
-77 -173 0
-78 -174 0
-79 -175 0
-76 -240 0
-77 -241 0
-78 -242 0
-79 -243 0
-76 -232 0
-77 -233 0
-78 -234 0
-79 -235 0
-76 -112 0
-77 -113 0
-78 -114 0
-79 -115 0
-76 -120 0
-77 -121 0
-78 -122 0
-79 -123 0
-80 -160 0
-81 -161 0
-82 -162 0
-83 -163 0
-80 -168 0
-81 -169 0
-82 -170 0
-83 -171 0
-80 -240 0
-81 -241 0
-82 -242 0
-83 -243 0
-80 -232 0
-81 -233 0
-82 -234 0
-83 -235 0
-80 -112 0
-81 -113 0
-82 -114 0
-83 -115 0
-80 -120 0
-81 -121 0
-82 -122 0
-83 -123 0
-84 -164 0
-85 -165 0
-86 -166 0
-87 -167 0
-84 -180 0
-85 -181 0
-86 -182 0
-87 -183 0
-84 -240 0
-85 -241 0
-86 -242 0
-87 -243 0
-84 -188 0
-85 -189 0
-86 -190 0
-87 -191 0
-84 -232 0
-85 -233 0
-86 -234 0
-87 -235 0
-84 -112 0
-85 -113 0
-86 -114 0
-87 -115 0
-84 -120 0
-85 -121 0
-86 -122 0
-87 -123 0
-88 -160 0
-89 -161 0
-90 -162 0
-91 -163 0
-88 -176 0
-89 -177 0
-90 -178 0
-91 -179 0
-88 -188 0
-89 -189 0
-90 -190 0
-91 -191 0
-88 -240 0
-89 -241 0
-90 -242 0
-91 -243 0
-88 -232 0
-89 -233 0
-90 -234 0
-91 -235 0
-88 -112 0
-89 -113 0
-90 -114 0
-91 -115 0
-88 -120 0
-89 -121 0
-90 -122 0
-91 -123 0
-92 -172 0
-93 -173 0
-94 -174 0
-95 -175 0
-92 -184 0
-93 -185 0
-94 -186 0
-95 -187 0
-92 -240 0
-93 -241 0
-94 -242 0
-95 -243 0
-92 -192 0
-93 -193 0
-94 -194 0
-95 -195 0
-92 -232 0
-93 -233 0
-94 -234 0
-95 -235 0
-92 -112 0
-93 -113 0
-94 -114 0
-95 -115 0
-92 -120 0
-93 -121 0
-94 -122 0
-95 -123 0
-96 -168 0
-97 -169 0
-98 -170 0
-99 -171 0
-96 -184 0
-97 -185 0
-98 -186 0
-99 -187 0
-96 -240 0
-97 -241 0
-98 -242 0
-99 -243 0
-96 -192 0
-97 -193 0
-98 -194 0
-99 -195 0
-96 -232 0
-97 -233 0
-98 -234 0
-99 -235 0
-96 -112 0
-97 -113 0
-98 -114 0
-99 -115 0
-96 -120 0
-97 -121 0
-98 -122 0
-99 -123 0
-100 -176 0
-101 -177 0
-102 -178 0
-103 -179 0
-100 -180 0
-101 -181 0
-102 -182 0
-103 -183 0
-100 -188 0
-101 -189 0
-102 -190 0
-103 -191 0
-100 -192 0
-101 -193 0
-102 -194 0
-103 -195 0
-100 -240 0
-101 -241 0
-102 -242 0
-103 -243 0
-100 -232 0
-101 -233 0
-102 -234 0
-103 -235 0
-100 -112 0
-101 -113 0
-102 -114 0
-103 -115 0
-100 -120 0
-101 -121 0
-102 -122 0
-103 -123 0
-104 -168 0
-105 -169 0
-106 -170 0
-107 -171 0
-104 -172 0
-105 -173 0
-106 -174 0
-107 -175 0
-104 -184 0
-105 -185 0
-106 -186 0
-107 -187 0
-104 -240 0
-105 -241 0
-106 -242 0
-107 -243 0
-104 -192 0
-105 -193 0
-106 -194 0
-107 -195 0
-104 -232 0
-105 -233 0
-106 -234 0
-107 -235 0
-104 -112 0
-105 -113 0
-106 -114 0
-107 -115 0
-104 -120 0
-105 -121 0
-106 -122 0
-107 -123 0
-108 -176 0
-109 -177 0
-110 -178 0
-111 -179 0
-108 -180 0
-109 -181 0
-110 -182 0
-111 -183 0
-108 -184 0
-109 -185 0
-110 -186 0
-111 -187 0
-108 -188 0
-109 -189 0
-110 -190 0
-111 -191 0
-108 -240 0
-109 -241 0
-110 -242 0
-111 -243 0
-108 -232 0
-109 -233 0
-110 -234 0
-111 -235 0
-108 -112 0
-109 -113 0
-110 -114 0
-111 -115 0
-108 -120 0
-109 -121 0
-110 -122 0
-111 -123 0
-112 -116 0
-113 -117 0
-114 -118 0
-115 -119 0
-112 -120 0
-113 -121 0
-114 -122 0
-115 -123 0
-112 -196 0
-113 -197 0
-114 -198 0
-115 -199 0
-112 -200 0
-113 -201 0
-114 -202 0
-115 -203 0
-112 -204 0
-113 -205 0
-114 -206 0
-115 -207 0
-112 -208 0
-113 -209 0
-114 -210 0
-115 -211 0
-112 -212 0
-113 -213 0
-114 -214 0
-115 -215 0
-112 -216 0
-113 -217 0
-114 -218 0
-115 -219 0
-112 -220 0
-113 -221 0
-114 -222 0
-115 -223 0
-112 -224 0
-113 -225 0
-114 -226 0
-115 -227 0
-112 -228 0
-113 -229 0
-114 -230 0
-115 -231 0
-112 -236 0
-113 -237 0
-114 -238 0
-115 -239 0
-112 -240 0
-113 -241 0
-114 -242 0
-115 -243 0
-116 -120 0
-117 -121 0
-118 -122 0
-119 -123 0
-116 -160 0
-117 -161 0
-118 -162 0
-119 -163 0
-116 -164 0
-117 -165 0
-118 -166 0
-119 -167 0
-116 -168 0
-117 -169 0
-118 -170 0
-119 -171 0
-116 -172 0
-117 -173 0
-118 -174 0
-119 -175 0
-116 -176 0
-117 -177 0
-118 -178 0
-119 -179 0
-116 -180 0
-117 -181 0
-118 -182 0
-119 -183 0
-116 -184 0
-117 -185 0
-118 -186 0
-119 -187 0
-116 -188 0
-117 -189 0
-118 -190 0
-119 -191 0
-116 -192 0
-117 -193 0
-118 -194 0
-119 -195 0
-116 -232 0
-117 -233 0
-118 -234 0
-119 -235 0
-116 -240 0
-117 -241 0
-118 -242 0
-119 -243 0
-120 -196 0
-121 -197 0
-122 -198 0
-123 -199 0
-120 -200 0
-121 -201 0
-122 -202 0
-123 -203 0
-120 -204 0
-121 -205 0
-122 -206 0
-123 -207 0
-120 -208 0
-121 -209 0
-122 -210 0
-123 -211 0
-120 -212 0
-121 -213 0
-122 -214 0
-123 -215 0
-120 -216 0
-121 -217 0
-122 -218 0
-123 -219 0
-120 -220 0
-121 -221 0
-122 -222 0
-123 -223 0
-120 -224 0
-121 -225 0
-122 -226 0
-123 -227 0
-120 -228 0
-121 -229 0
-122 -230 0
-123 -231 0
-120 -232 0
-121 -233 0
-122 -234 0
-123 -235 0
-120 -236 0
-121 -237 0
-122 -238 0
-123 -239 0
-124 -256 0
-125 -257 0
-126 -258 0
-127 -259 0
-124 -284 0
-125 -285 0
-126 -286 0
-127 -287 0
-124 -292 0
-125 -293 0
-126 -294 0
-127 -295 0
-124 -368 0
-125 -369 0
-126 -370 0
-127 -371 0
-124 -248 0
-125 -249 0
-126 -250 0
-127 -251 0
-128 -280 0
-129 -281 0
-130 -282 0
-131 -283 0
-128 -288 0
-129 -289 0
-130 -290 0
-131 -291 0
-128 -368 0
-129 -369 0
-130 -370 0
-131 -371 0
-128 -244 0
-129 -245 0
-130 -246 0
-131 -247 0
-128 -252 0
-129 -253 0
-130 -254 0
-131 -255 0
-132 -264 0
-133 -265 0
-134 -266 0
-135 -267 0
-132 -272 0
-133 -273 0
-134 -274 0
-135 -275 0
-132 -284 0
-133 -285 0
-134 -286 0
-135 -287 0
-132 -300 0
-133 -301 0
-134 -302 0
-135 -303 0
-132 -308 0
-133 -309 0
-134 -310 0
-135 -311 0
-132 -368 0
-133 -369 0
-134 -370 0
-135 -371 0
-132 -248 0
-133 -249 0
-134 -250 0
-135 -251 0
-136 -260 0
-137 -261 0
-138 -262 0
-139 -263 0
-136 -272 0
-137 -273 0
-138 -274 0
-139 -275 0
-136 -280 0
-137 -281 0
-138 -282 0
-139 -283 0
-136 -296 0
-137 -297 0
-138 -298 0
-139 -299 0
-136 -308 0
-137 -309 0
-138 -310 0
-139 -311 0
-136 -368 0
-137 -369 0
-138 -370 0
-139 -371 0
-136 -244 0
-137 -245 0
-138 -246 0
-139 -247 0
-140 -256 0
-141 -257 0
-142 -258 0
-143 -259 0
-140 -268 0
-141 -269 0
-142 -270 0
-143 -271 0
-140 -276 0
-141 -277 0
-142 -278 0
-143 -279 0
-140 -292 0
-141 -293 0
-142 -294 0
-143 -295 0
-140 -304 0
-141 -305 0
-142 -306 0
-143 -307 0
-140 -312 0
-141 -313 0
-142 -314 0
-143 -315 0
-140 -368 0
-141 -369 0
-142 -370 0
-143 -371 0
-144 -268 0
-145 -269 0
-146 -270 0
-147 -271 0
-144 -276 0
-145 -277 0
-146 -278 0
-147 -279 0
-144 -288 0
-145 -289 0
-146 -290 0
-147 -291 0
-144 -304 0
-145 -305 0
-146 -306 0
-147 -307 0
-144 -312 0
-145 -313 0
-146 -314 0
-147 -315 0
-144 -368 0
-145 -369 0
-146 -370 0
-147 -371 0
-144 -252 0
-145 -253 0
-146 -254 0
-147 -255 0
-148 -260 0
-149 -261 0
-150 -262 0
-151 -263 0
-148 -264 0
-149 -265 0
-150 -266 0
-151 -267 0
-148 -272 0
-149 -273 0
-150 -274 0
-151 -275 0
-148 -276 0
-149 -277 0
-150 -278 0
-151 -279 0
-148 -296 0
-149 -297 0
-150 -298 0
-151 -299 0
-148 -300 0
-149 -301 0
-150 -302 0
-151 -303 0
-148 -308 0
-149 -309 0
-150 -310 0
-151 -311 0
-148 -312 0
-149 -313 0
-150 -314 0
-151 -315 0
-148 -368 0
-149 -369 0
-150 -370 0
-151 -371 0
-152 -256 0
-153 -257 0
-154 -258 0
-155 -259 0
-152 -268 0
-153 -269 0
-154 -270 0
-155 -271 0
-152 -276 0
-153 -277 0
-154 -278 0
-155 -279 0
-152 -288 0
-153 -289 0
-154 -290 0
-155 -291 0
-152 -292 0
-153 -293 0
-154 -294 0
-155 -295 0
-152 -304 0
-153 -305 0
-154 -306 0
-155 -307 0
-152 -312 0
-153 -313 0
-154 -314 0
-155 -315 0
-152 -368 0
-153 -369 0
-154 -370 0
-155 -371 0
-152 -252 0
-153 -253 0
-154 -254 0
-155 -255 0
-156 -260 0
-157 -261 0
-158 -262 0
-159 -263 0
-156 -264 0
-157 -265 0
-158 -266 0
-159 -267 0
-156 -268 0
-157 -269 0
-158 -270 0
-159 -271 0
-156 -272 0
-157 -273 0
-158 -274 0
-159 -275 0
-156 -296 0
-157 -297 0
-158 -298 0
-159 -299 0
-156 -300 0
-157 -301 0
-158 -302 0
-159 -303 0
-156 -304 0
-157 -305 0
-158 -306 0
-159 -307 0
-156 -308 0
-157 -309 0
-158 -310 0
-159 -311 0
-156 -368 0
-157 -369 0
-158 -370 0
-159 -371 0
-160 -256 0
-161 -257 0
-162 -258 0
-163 -259 0
-160 -320 0
-161 -321 0
-162 -322 0
-163 -323 0
-160 -328 0
-161 -329 0
-162 -330 0
-163 -331 0
-160 -356 0
-161 -357 0
-162 -358 0
-163 -359 0
-160 -368 0
-161 -369 0
-162 -370 0
-163 -371 0
-160 -248 0
-161 -249 0
-162 -250 0
-163 -251 0
-164 -316 0
-165 -317 0
-166 -318 0
-167 -319 0
-164 -324 0
-165 -325 0
-166 -326 0
-167 -327 0
-164 -244 0
-165 -245 0
-166 -246 0
-167 -247 0
-164 -356 0
-165 -357 0
-166 -358 0
-167 -359 0
-164 -368 0
-165 -369 0
-166 -370 0
-167 -371 0
-164 -252 0
-165 -253 0
-166 -254 0
-167 -255 0
-168 -264 0
-169 -265 0
-170 -266 0
-171 -267 0
-168 -272 0
-169 -273 0
-170 -274 0
-171 -275 0
-168 -320 0
-169 -321 0
-170 -322 0
-171 -323 0
-168 -336 0
-169 -337 0
-170 -338 0
-171 -339 0
-168 -344 0
-169 -345 0
-170 -346 0
-171 -347 0
-168 -356 0
-169 -357 0
-170 -358 0
-171 -359 0
-168 -368 0
-169 -369 0
-170 -370 0
-171 -371 0
-168 -248 0
-169 -249 0
-170 -250 0
-171 -251 0
-172 -260 0
-173 -261 0
-174 -262 0
-175 -263 0
-172 -272 0
-173 -273 0
-174 -274 0
-175 -275 0
-172 -316 0
-173 -317 0
-174 -318 0
-175 -319 0
-172 -244 0
-173 -245 0
-174 -246 0
-175 -247 0
-172 -332 0
-173 -333 0
-174 -334 0
-175 -335 0
-172 -344 0
-173 -345 0
-174 -346 0
-175 -347 0
-172 -356 0
-173 -357 0
-174 -358 0
-175 -359 0
-172 -368 0
-173 -369 0
-174 -370 0
-175 -371 0
-176 -256 0
-177 -257 0
-178 -258 0
-179 -259 0
-176 -356 0
-177 -357 0
-178 -358 0
-179 -359 0
-176 -268 0
-177 -269 0
-178 -270 0
-179 -271 0
-176 -276 0
-177 -277 0
-178 -278 0
-179 -279 0
-176 -328 0
-177 -329 0
-178 -330 0
-179 -331 0
-176 -340 0
-177 -341 0
-178 -342 0
-179 -343 0
-176 -348 0
-177 -349 0
-178 -350 0
-179 -351 0
-176 -368 0
-177 -369 0
-178 -370 0
-179 -371 0
-180 -356 0
-181 -357 0
-182 -358 0
-183 -359 0
-180 -268 0
-181 -269 0
-182 -270 0
-183 -271 0
-180 -276 0
-181 -277 0
-182 -278 0
-183 -279 0
-180 -324 0
-181 -325 0
-182 -326 0
-183 -327 0
-180 -340 0
-181 -341 0
-182 -342 0
-183 -343 0
-180 -348 0
-181 -349 0
-182 -350 0
-183 -351 0
-180 -368 0
-181 -369 0
-182 -370 0
-183 -371 0
-180 -252 0
-181 -253 0
-182 -254 0
-183 -255 0
-184 -356 0
-185 -357 0
-186 -358 0
-187 -359 0
-184 -260 0
-185 -261 0
-186 -262 0
-187 -263 0
-184 -264 0
-185 -265 0
-186 -266 0
-187 -267 0
-184 -272 0
-185 -273 0
-186 -274 0
-187 -275 0
-184 -276 0
-185 -277 0
-186 -278 0
-187 -279 0
-184 -332 0
-185 -333 0
-186 -334 0
-187 -335 0
-184 -336 0
-185 -337 0
-186 -338 0
-187 -339 0
-184 -344 0
-185 -345 0
-186 -346 0
-187 -347 0
-184 -348 0
-185 -349 0
-186 -350 0
-187 -351 0
-184 -368 0
-185 -369 0
-186 -370 0
-187 -371 0
-188 -256 0
-189 -257 0
-190 -258 0
-191 -259 0
-188 -356 0
-189 -357 0
-190 -358 0
-191 -359 0
-188 -268 0
-189 -269 0
-190 -270 0
-191 -271 0
-188 -276 0
-189 -277 0
-190 -278 0
-191 -279 0
-188 -324 0
-189 -325 0
-190 -326 0
-191 -327 0
-188 -328 0
-189 -329 0
-190 -330 0
-191 -331 0
-188 -340 0
-189 -341 0
-190 -342 0
-191 -343 0
-188 -348 0
-189 -349 0
-190 -350 0
-191 -351 0
-188 -368 0
-189 -369 0
-190 -370 0
-191 -371 0
-188 -252 0
-189 -253 0
-190 -254 0
-191 -255 0
-192 -356 0
-193 -357 0
-194 -358 0
-195 -359 0
-192 -260 0
-193 -261 0
-194 -262 0
-195 -263 0
-192 -264 0
-193 -265 0
-194 -266 0
-195 -267 0
-192 -268 0
-193 -269 0
-194 -270 0
-195 -271 0
-192 -272 0
-193 -273 0
-194 -274 0
-195 -275 0
-192 -332 0
-193 -333 0
-194 -334 0
-195 -335 0
-192 -336 0
-193 -337 0
-194 -338 0
-195 -339 0
-192 -340 0
-193 -341 0
-194 -342 0
-195 -343 0
-192 -344 0
-193 -345 0
-194 -346 0
-195 -347 0
-192 -368 0
-193 -369 0
-194 -370 0
-195 -371 0
-196 -284 0
-197 -285 0
-198 -286 0
-199 -287 0
-196 -292 0
-197 -293 0
-198 -294 0
-199 -295 0
-196 -368 0
-197 -369 0
-198 -370 0
-199 -371 0
-196 -352 0
-197 -353 0
-198 -354 0
-199 -355 0
-196 -360 0
-197 -361 0
-198 -362 0
-199 -363 0
-200 -280 0
-201 -281 0
-202 -282 0
-203 -283 0
-200 -288 0
-201 -289 0
-202 -290 0
-203 -291 0
-200 -368 0
-201 -369 0
-202 -370 0
-203 -371 0
-200 -352 0
-201 -353 0
-202 -354 0
-203 -355 0
-200 -360 0
-201 -361 0
-202 -362 0
-203 -363 0
-204 -284 0
-205 -285 0
-206 -286 0
-207 -287 0
-204 -300 0
-205 -301 0
-206 -302 0
-207 -303 0
-204 -308 0
-205 -309 0
-206 -310 0
-207 -311 0
-204 -368 0
-205 -369 0
-206 -370 0
-207 -371 0
-204 -352 0
-205 -353 0
-206 -354 0
-207 -355 0
-204 -360 0
-205 -361 0
-206 -362 0
-207 -363 0
-208 -280 0
-209 -281 0
-210 -282 0
-211 -283 0
-208 -296 0
-209 -297 0
-210 -298 0
-211 -299 0
-208 -308 0
-209 -309 0
-210 -310 0
-211 -311 0
-208 -368 0
-209 -369 0
-210 -370 0
-211 -371 0
-208 -352 0
-209 -353 0
-210 -354 0
-211 -355 0
-208 -360 0
-209 -361 0
-210 -362 0
-211 -363 0
-212 -292 0
-213 -293 0
-214 -294 0
-215 -295 0
-212 -304 0
-213 -305 0
-214 -306 0
-215 -307 0
-212 -312 0
-213 -313 0
-214 -314 0
-215 -315 0
-212 -368 0
-213 -369 0
-214 -370 0
-215 -371 0
-212 -352 0
-213 -353 0
-214 -354 0
-215 -355 0
-212 -360 0
-213 -361 0
-214 -362 0
-215 -363 0
-216 -288 0
-217 -289 0
-218 -290 0
-219 -291 0
-216 -304 0
-217 -305 0
-218 -306 0
-219 -307 0
-216 -312 0
-217 -313 0
-218 -314 0
-219 -315 0
-216 -368 0
-217 -369 0
-218 -370 0
-219 -371 0
-216 -352 0
-217 -353 0
-218 -354 0
-219 -355 0
-216 -360 0
-217 -361 0
-218 -362 0
-219 -363 0
-220 -296 0
-221 -297 0
-222 -298 0
-223 -299 0
-220 -300 0
-221 -301 0
-222 -302 0
-223 -303 0
-220 -308 0
-221 -309 0
-222 -310 0
-223 -311 0
-220 -312 0
-221 -313 0
-222 -314 0
-223 -315 0
-220 -368 0
-221 -369 0
-222 -370 0
-223 -371 0
-220 -352 0
-221 -353 0
-222 -354 0
-223 -355 0
-220 -360 0
-221 -361 0
-222 -362 0
-223 -363 0
-224 -288 0
-225 -289 0
-226 -290 0
-227 -291 0
-224 -292 0
-225 -293 0
-226 -294 0
-227 -295 0
-224 -304 0
-225 -305 0
-226 -306 0
-227 -307 0
-224 -312 0
-225 -313 0
-226 -314 0
-227 -315 0
-224 -368 0
-225 -369 0
-226 -370 0
-227 -371 0
-224 -352 0
-225 -353 0
-226 -354 0
-227 -355 0
-224 -360 0
-225 -361 0
-226 -362 0
-227 -363 0
-228 -296 0
-229 -297 0
-230 -298 0
-231 -299 0
-228 -300 0
-229 -301 0
-230 -302 0
-231 -303 0
-228 -304 0
-229 -305 0
-230 -306 0
-231 -307 0
-228 -308 0
-229 -309 0
-230 -310 0
-231 -311 0
-228 -368 0
-229 -369 0
-230 -370 0
-231 -371 0
-228 -352 0
-229 -353 0
-230 -354 0
-231 -355 0
-228 -360 0
-229 -361 0
-230 -362 0
-231 -363 0
-232 -316 0
-233 -317 0
-234 -318 0
-235 -319 0
-232 -320 0
-233 -321 0
-234 -322 0
-235 -323 0
-232 -324 0
-233 -325 0
-234 -326 0
-235 -327 0
-232 -328 0
-233 -329 0
-234 -330 0
-235 -331 0
-232 -332 0
-233 -333 0
-234 -334 0
-235 -335 0
-232 -336 0
-233 -337 0
-234 -338 0
-235 -339 0
-232 -340 0
-233 -341 0
-234 -342 0
-235 -343 0
-232 -344 0
-233 -345 0
-234 -346 0
-235 -347 0
-232 -348 0
-233 -349 0
-234 -350 0
-235 -351 0
-232 -356 0
-233 -357 0
-234 -358 0
-235 -359 0
-232 -360 0
-233 -361 0
-234 -362 0
-235 -363 0
-232 -368 0
-233 -369 0
-234 -370 0
-235 -371 0
-236 -280 0
-237 -281 0
-238 -282 0
-239 -283 0
-236 -284 0
-237 -285 0
-238 -286 0
-239 -287 0
-236 -288 0
-237 -289 0
-238 -290 0
-239 -291 0
-236 -292 0
-237 -293 0
-238 -294 0
-239 -295 0
-236 -296 0
-237 -297 0
-238 -298 0
-239 -299 0
-236 -300 0
-237 -301 0
-238 -302 0
-239 -303 0
-236 -304 0
-237 -305 0
-238 -306 0
-239 -307 0
-236 -308 0
-237 -309 0
-238 -310 0
-239 -311 0
-236 -312 0
-237 -313 0
-238 -314 0
-239 -315 0
-236 -352 0
-237 -353 0
-238 -354 0
-239 -355 0
-236 -360 0
-237 -361 0
-238 -362 0
-239 -363 0
-236 -368 0
-237 -369 0
-238 -370 0
-239 -371 0
-240 -316 0
-241 -317 0
-242 -318 0
-243 -319 0
-240 -320 0
-241 -321 0
-242 -322 0
-243 -323 0
-240 -324 0
-241 -325 0
-242 -326 0
-243 -327 0
-240 -328 0
-241 -329 0
-242 -330 0
-243 -331 0
-240 -332 0
-241 -333 0
-242 -334 0
-243 -335 0
-240 -336 0
-241 -337 0
-242 -338 0
-243 -339 0
-240 -340 0
-241 -341 0
-242 -342 0
-243 -343 0
-240 -344 0
-241 -345 0
-242 -346 0
-243 -347 0
-240 -348 0
-241 -349 0
-242 -350 0
-243 -351 0
-240 -352 0
-241 -353 0
-242 -354 0
-243 -355 0
-240 -356 0
-241 -357 0
-242 -358 0
-243 -359 0
-240 -368 0
-241 -369 0
-242 -370 0
-243 -371 0
-244 -364 0
-245 -365 0
-246 -366 0
-247 -367 0
-244 -372 0
-245 -373 0
-246 -374 0
-247 -375 0
-248 -364 0
-249 -365 0
-250 -366 0
-251 -367 0
-248 -372 0
-249 -373 0
-250 -374 0
-251 -375 0
-252 -364 0
-253 -365 0
-254 -366 0
-255 -367 0
-252 -372 0
-253 -373 0
-254 -374 0
-255 -375 0
-256 -364 0
-257 -365 0
-258 -366 0
-259 -367 0
-256 -372 0
-257 -373 0
-258 -374 0
-259 -375 0
-260 -364 0
-261 -365 0
-262 -366 0
-263 -367 0
-260 -372 0
-261 -373 0
-262 -374 0
-263 -375 0
-264 -364 0
-265 -365 0
-266 -366 0
-267 -367 0
-264 -372 0
-265 -373 0
-266 -374 0
-267 -375 0
-268 -364 0
-269 -365 0
-270 -366 0
-271 -367 0
-268 -372 0
-269 -373 0
-270 -374 0
-271 -375 0
-272 -364 0
-273 -365 0
-274 -366 0
-275 -367 0
-272 -372 0
-273 -373 0
-274 -374 0
-275 -375 0
-276 -364 0
-277 -365 0
-278 -366 0
-279 -367 0
-276 -372 0
-277 -373 0
-278 -374 0
-279 -375 0
-280 -364 0
-281 -365 0
-282 -366 0
-283 -367 0
-280 -372 0
-281 -373 0
-282 -374 0
-283 -375 0
-284 -364 0
-285 -365 0
-286 -366 0
-287 -367 0
-284 -372 0
-285 -373 0
-286 -374 0
-287 -375 0
-288 -364 0
-289 -365 0
-290 -366 0
-291 -367 0
-288 -372 0
-289 -373 0
-290 -374 0
-291 -375 0
-292 -364 0
-293 -365 0
-294 -366 0
-295 -367 0
-292 -372 0
-293 -373 0
-294 -374 0
-295 -375 0
-296 -364 0
-297 -365 0
-298 -366 0
-299 -367 0
-296 -372 0
-297 -373 0
-298 -374 0
-299 -375 0
-300 -364 0
-301 -365 0
-302 -366 0
-303 -367 0
-300 -372 0
-301 -373 0
-302 -374 0
-303 -375 0
-304 -364 0
-305 -365 0
-306 -366 0
-307 -367 0
-304 -372 0
-305 -373 0
-306 -374 0
-307 -375 0
-308 -364 0
-309 -365 0
-310 -366 0
-311 -367 0
-308 -372 0
-309 -373 0
-310 -374 0
-311 -375 0
-312 -364 0
-313 -365 0
-314 -366 0
-315 -367 0
-312 -372 0
-313 -373 0
-314 -374 0
-315 -375 0
-316 -364 0
-317 -365 0
-318 -366 0
-319 -367 0
-316 -372 0
-317 -373 0
-318 -374 0
-319 -375 0
-320 -364 0
-321 -365 0
-322 -366 0
-323 -367 0
-320 -372 0
-321 -373 0
-322 -374 0
-323 -375 0
-324 -364 0
-325 -365 0
-326 -366 0
-327 -367 0
-324 -372 0
-325 -373 0
-326 -374 0
-327 -375 0
-328 -364 0
-329 -365 0
-330 -366 0
-331 -367 0
-328 -372 0
-329 -373 0
-330 -374 0
-331 -375 0
-332 -364 0
-333 -365 0
-334 -366 0
-335 -367 0
-332 -372 0
-333 -373 0
-334 -374 0
-335 -375 0
-336 -364 0
-337 -365 0
-338 -366 0
-339 -367 0
-336 -372 0
-337 -373 0
-338 -374 0
-339 -375 0
-340 -364 0
-341 -365 0
-342 -366 0
-343 -367 0
-340 -372 0
-341 -373 0
-342 -374 0
-343 -375 0
-344 -364 0
-345 -365 0
-346 -366 0
-347 -367 0
-344 -372 0
-345 -373 0
-346 -374 0
-347 -375 0
-348 -364 0
-349 -365 0
-350 -366 0
-351 -367 0
-348 -372 0
-349 -373 0
-350 -374 0
-351 -375 0
-352 -364 0
-353 -365 0
-354 -366 0
-355 -367 0
-352 -372 0
-353 -373 0
-354 -374 0
-355 -375 0
-356 -364 0
-357 -365 0
-358 -366 0
-359 -367 0
-356 -372 0
-357 -373 0
-358 -374 0
-359 -375 0
-360 -364 0
-361 -365 0
-362 -366 0
-363 -367 0
-360 -372 0
-361 -373 0
-362 -374 0
-363 -375 0
-364 -368 0
-365 -369 0
-366 -370 0
-367 -371 0
-364 -372 0
-365 -373 0
-366 -374 0
-367 -375 0
-368 -372 0
-369 -373 0
-370 -374 0
-371 -375 0
